10
73
0 1 5 4
0 2 5 4
0 3 25 75
0 4 5 4
0 5 5 4
0 6 5 4
0 7 5 4
0 8 5 4
0 9 5 4
1 2 6 4
1 3 25 75
1 4 5 4
1 5 5 4
1 6 5 4
1 7 5 4
1 8 5 4
1 9 5 4
2 3 25 75
2 4 5 4
2 5 5 4
2 6 5 4
2 7 5 4
2 8 5 4
2 9 5 4
3 4 20 10
3 5 25 75
3 6 25 75
3 7 25 75
3 8 25 75
3 9 25 75
4 5 5 4
4 6 5 4
4 7 5 4
4 8 5 4
4 9 5 4
5 6 5 4
5 7 5 4
5 8 5 4
5 9 5 4
6 7 5 4
6 8 5 4
6 9 5 4
7 8 5 4
7 9 5 4
8 9 5 4